data/lp_files/q3/73_5.lp
\ Model foo
\ LP format - for model browsing. Use MPS format to capture full model detail.
Minimize
  z
Subject To
 allocateEach[1]: x[1,1] + x[2,1] + x[3,1] + x[4,1] = 1
 allocateEach[2]: x[1,2] + x[2,2] + x[3,2] + x[4,2] = 1
 allocateEach[3]: x[1,3] + x[2,3] + x[3,3] + x[4,3] = 1
 allocateEach[4]: x[1,4] + x[2,4] + x[3,4] + x[4,4] = 1
 allocateEach[5]: x[1,5] + x[2,5] + x[3,5] + x[4,5] = 1
 allocateEach[6]: x[1,6] + x[2,6] + x[3,6] + x[4,6] = 1
 allocateEach[7]: x[1,7] + x[2,7] + x[3,7] + x[4,7] = 1
 allocateEach[8]: x[1,8] + x[2,8] + x[3,8] + x[4,8] = 1
 allocateEach[9]: x[1,9] + x[2,9] + x[3,9] + x[4,9] = 1
 allocateEach[10]: x[1,10] + x[2,10] + x[3,10] + x[4,10] = 1
 allocateEach[11]: x[1,11] + x[2,11] + x[3,11] + x[4,11] = 1
 allocateEach[12]: x[1,12] + x[2,12] + x[3,12] + x[4,12] = 1
 allocateEach[13]: x[1,13] + x[2,13] + x[3,13] + x[4,13] = 1
 allocateAllCash: cashProportion[1] + cashProportion[2] + cashProportion[3]
   + cashProportion[4] = 1
 findWorstP[1,2]: z + 0.043640807063992 cashProportion[1]
   - 0.043640807063992 cashProportion[2] + 0.00174563228255968 x[1,1]
   + 0.0727637723113626 x[1,2] + 0.0576204122601574 x[1,3]
   + 0.1059307856799965 x[1,4] + 0.0665522307725877 x[1,5]
   + 0.1430545655557657 x[1,6] + 0.1103530541291477 x[1,7]
   + 0.00270573 x[1,8] + 0.0244388519558355 x[1,9]
   + 0.0964898244184862 x[1,10] + 0.0523544215411024 x[1,11]
   + 0.1329880860596715 x[1,12] + 0.0893618259313675 x[1,13]
   - 0.00174563228255968 x[2,1] - 0.0727637723113626 x[2,2]
   - 0.0576204122601574 x[2,3] - 0.1059307856799965 x[2,4]
   - 0.0665522307725877 x[2,5] - 0.1430545655557657 x[2,6]
   - 0.1103530541291477 x[2,7] - 0.00270573 x[2,8]
   - 0.0244388519558355 x[2,9] - 0.0964898244184862 x[2,10]
   - 0.0523544215411024 x[2,11] - 0.1329880860596715 x[2,12]
   - 0.0893618259313675 x[2,13] >= 0
 findWorstP[1,3]: z + 0.043640807063992 cashProportion[1]
   - 0.043640807063992 cashProportion[3] + 0.00174563228255968 x[1,1]
   + 0.0727637723113626 x[1,2] + 0.0576204122601574 x[1,3]
   + 0.1059307856799965 x[1,4] + 0.0665522307725877 x[1,5]
   + 0.1430545655557657 x[1,6] + 0.1103530541291477 x[1,7]
   + 0.00270573 x[1,8] + 0.0244388519558355 x[1,9]
   + 0.0964898244184862 x[1,10] + 0.0523544215411024 x[1,11]
   + 0.1329880860596715 x[1,12] + 0.0893618259313675 x[1,13]
   - 0.00174563228255968 x[3,1] - 0.0727637723113626 x[3,2]
   - 0.0576204122601574 x[3,3] - 0.1059307856799965 x[3,4]
   - 0.0665522307725877 x[3,5] - 0.1430545655557657 x[3,6]
   - 0.1103530541291477 x[3,7] - 0.00270573 x[3,8]
   - 0.0244388519558355 x[3,9] - 0.0964898244184862 x[3,10]
   - 0.0523544215411024 x[3,11] - 0.1329880860596715 x[3,12]
   - 0.0893618259313675 x[3,13] >= 0
 findWorstP[1,4]: z + 0.043640807063992 cashProportion[1]
   - 0.043640807063992 cashProportion[4] + 0.00174563228255968 x[1,1]
   + 0.0727637723113626 x[1,2] + 0.0576204122601574 x[1,3]
   + 0.1059307856799965 x[1,4] + 0.0665522307725877 x[1,5]
   + 0.1430545655557657 x[1,6] + 0.1103530541291477 x[1,7]
   + 0.00270573 x[1,8] + 0.0244388519558355 x[1,9]
   + 0.0964898244184862 x[1,10] + 0.0523544215411024 x[1,11]
   + 0.1329880860596715 x[1,12] + 0.0893618259313675 x[1,13]
   - 0.00174563228255968 x[4,1] - 0.0727637723113626 x[4,2]
   - 0.0576204122601574 x[4,3] - 0.1059307856799965 x[4,4]
   - 0.0665522307725877 x[4,5] - 0.1430545655557657 x[4,6]
   - 0.1103530541291477 x[4,7] - 0.00270573 x[4,8]
   - 0.0244388519558355 x[4,9] - 0.0964898244184862 x[4,10]
   - 0.0523544215411024 x[4,11] - 0.1329880860596715 x[4,12]
   - 0.0893618259313675 x[4,13] >= 0
 findWorstP[2,1]: z - 0.0550600154168043 cashProportion[1]
   + 0.0550600154168043 cashProportion[2] - 0.1241052747494769 x[1,1]
   - 0.00168850713944867 x[1,2] - 0.0818375362478435 x[1,3]
   - 0.0315677421723011 x[1,4] - 0.1397606724663216 x[1,5]
   - 0.0218771794589436 x[1,6] - 0.1014939617516426 x[1,7]
   - 0.0115258965605844 x[1,8] - 0.1262709686892045 x[1,9]
   - 0.1187093932386301 x[1,10] - 0.00537752817237455 x[1,11]
   - 0.0705685864258709 x[1,12] - 0.1101567375105532 x[1,13]
   + 0.1241052747494769 x[2,1] + 0.00168850713944867 x[2,2]
   + 0.0818375362478435 x[2,3] + 0.0315677421723011 x[2,4]
   + 0.1397606724663216 x[2,5] + 0.0218771794589436 x[2,6]
   + 0.1014939617516426 x[2,7] + 0.0115258965605844 x[2,8]
   + 0.1262709686892045 x[2,9] + 0.1187093932386301 x[2,10]
   + 0.00537752817237455 x[2,11] + 0.0705685864258709 x[2,12]
   + 0.1101567375105532 x[2,13] >= 0
 findWorstP[2,3]: z + 0.0550600154168043 cashProportion[2]
   - 0.0550600154168043 cashProportion[3] + 0.1241052747494769 x[2,1]
   + 0.00168850713944867 x[2,2] + 0.0818375362478435 x[2,3]
   + 0.0315677421723011 x[2,4] + 0.1397606724663216 x[2,5]
   + 0.0218771794589436 x[2,6] + 0.1014939617516426 x[2,7]
   + 0.0115258965605844 x[2,8] + 0.1262709686892045 x[2,9]
   + 0.1187093932386301 x[2,10] + 0.00537752817237455 x[2,11]
   + 0.0705685864258709 x[2,12] + 0.1101567375105532 x[2,13]
   - 0.1241052747494769 x[3,1] - 0.00168850713944867 x[3,2]
   - 0.0818375362478435 x[3,3] - 0.0315677421723011 x[3,4]
   - 0.1397606724663216 x[3,5] - 0.0218771794589436 x[3,6]
   - 0.1014939617516426 x[3,7] - 0.0115258965605844 x[3,8]
   - 0.1262709686892045 x[3,9] - 0.1187093932386301 x[3,10]
   - 0.00537752817237455 x[3,11] - 0.0705685864258709 x[3,12]
   - 0.1101567375105532 x[3,13] >= 0
 findWorstP[2,4]: z + 0.0550600154168043 cashProportion[2]
   - 0.0550600154168043 cashProportion[4] + 0.1241052747494769 x[2,1]
   + 0.00168850713944867 x[2,2] + 0.0818375362478435 x[2,3]
   + 0.0315677421723011 x[2,4] + 0.1397606724663216 x[2,5]
   + 0.0218771794589436 x[2,6] + 0.1014939617516426 x[2,7]
   + 0.0115258965605844 x[2,8] + 0.1262709686892045 x[2,9]
   + 0.1187093932386301 x[2,10] + 0.00537752817237455 x[2,11]
   + 0.0705685864258709 x[2,12] + 0.1101567375105532 x[2,13]
   - 0.1241052747494769 x[4,1] - 0.00168850713944867 x[4,2]
   - 0.0818375362478435 x[4,3] - 0.0315677421723011 x[4,4]
   - 0.1397606724663216 x[4,5] - 0.0218771794589436 x[4,6]
   - 0.1014939617516426 x[4,7] - 0.0115258965605844 x[4,8]
   - 0.1262709686892045 x[4,9] - 0.1187093932386301 x[4,10]
   - 0.00537752817237455 x[4,11] - 0.0705685864258709 x[4,12]
   - 0.1101567375105532 x[4,13] >= 0
 findWorstP[3,1]: z - 0.0483769532194862 cashProportion[1]
   + 0.0483769532194862 cashProportion[3] - 0.0624707722574299 x[1,1]
   - 0.121974424717398 x[1,2] - 0.0313160143840808 x[1,3]
   - 0.00615999870994791 x[1,4] - 0.1376646832115847 x[1,5]
   - 0.00898198764775128 x[1,6] - 0.0653572637995259 x[1,7]
   - 0.0153677454727235 x[1,8] - 0.1608049925015723 x[1,9]
   - 0.1539677164465516 x[1,10] - 0.0814184122683953 x[1,11]
   - 0.0243174818183284 x[1,12] - 0.0818215535452244 x[1,13]
   + 0.0624707722574299 x[3,1] + 0.121974424717398 x[3,2]
   + 0.0313160143840808 x[3,3] + 0.00615999870994791 x[3,4]
   + 0.1376646832115847 x[3,5] + 0.00898198764775128 x[3,6]
   + 0.0653572637995259 x[3,7] + 0.0153677454727235 x[3,8]
   + 0.1608049925015723 x[3,9] + 0.1539677164465516 x[3,10]
   + 0.0814184122683953 x[3,11] + 0.0243174818183284 x[3,12]
   + 0.0818215535452244 x[3,13] >= 0
 findWorstP[3,2]: z - 0.0483769532194862 cashProportion[2]
   + 0.0483769532194862 cashProportion[3] - 0.0624707722574299 x[2,1]
   - 0.121974424717398 x[2,2] - 0.0313160143840808 x[2,3]
   - 0.00615999870994791 x[2,4] - 0.1376646832115847 x[2,5]
   - 0.00898198764775128 x[2,6] - 0.0653572637995259 x[2,7]
   - 0.0153677454727235 x[2,8] - 0.1608049925015723 x[2,9]
   - 0.1539677164465516 x[2,10] - 0.0814184122683953 x[2,11]
   - 0.0243174818183284 x[2,12] - 0.0818215535452244 x[2,13]
   + 0.0624707722574299 x[3,1] + 0.121974424717398 x[3,2]
   + 0.0313160143840808 x[3,3] + 0.00615999870994791 x[3,4]
   + 0.1376646832115847 x[3,5] + 0.00898198764775128 x[3,6]
   + 0.0653572637995259 x[3,7] + 0.0153677454727235 x[3,8]
   + 0.1608049925015723 x[3,9] + 0.1539677164465516 x[3,10]
   + 0.0814184122683953 x[3,11] + 0.0243174818183284 x[3,12]
   + 0.0818215535452244 x[3,13] >= 0
 findWorstP[3,4]: z + 0.0483769532194862 cashProportion[3]
   - 0.0483769532194862 cashProportion[4] + 0.0624707722574299 x[3,1]
   + 0.121974424717398 x[3,2] + 0.0313160143840808 x[3,3]
   + 0.00615999870994791 x[3,4] + 0.1376646832115847 x[3,5]
   + 0.00898198764775128 x[3,6] + 0.0653572637995259 x[3,7]
   + 0.0153677454727235 x[3,8] + 0.1608049925015723 x[3,9]
   + 0.1539677164465516 x[3,10] + 0.0814184122683953 x[3,11]
   + 0.0243174818183284 x[3,12] + 0.0818215535452244 x[3,13]
   - 0.0624707722574299 x[4,1] - 0.121974424717398 x[4,2]
   - 0.0313160143840808 x[4,3] - 0.00615999870994791 x[4,4]
   - 0.1376646832115847 x[4,5] - 0.00898198764775128 x[4,6]
   - 0.0653572637995259 x[4,7] - 0.0153677454727235 x[4,8]
   - 0.1608049925015723 x[4,9] - 0.1539677164465516 x[4,10]
   - 0.0814184122683953 x[4,11] - 0.0243174818183284 x[4,12]
   - 0.0818215535452244 x[4,13] >= 0
 findWorstP[4,1]: z - 0.0445394619632995 cashProportion[1]
   + 0.0445394619632995 cashProportion[4] - 0.0948096680325435 x[1,1]
   - 0.0906674980699567 x[1,2] - 0.0106003919472653 x[1,3]
   - 0.1122988300967991 x[1,4] - 0.0553625512203813 x[1,5]
   - 0.1313914127917335 x[1,6] - 0.0752865372052972 x[1,7]
   - 0.0330482807767682 x[1,8] - 0.0163459825405309 x[1,9]
   - 0.0294999703070254 x[1,10] - 0.0628600273175367 x[1,11]
   - 0.0998426272343963 x[1,12] - 0.1434467604964665 x[1,13]
   + 0.0948096680325435 x[4,1] + 0.0906674980699567 x[4,2]
   + 0.0106003919472653 x[4,3] + 0.1122988300967991 x[4,4]
   + 0.0553625512203813 x[4,5] + 0.1313914127917335 x[4,6]
   + 0.0752865372052972 x[4,7] + 0.0330482807767682 x[4,8]
   + 0.0163459825405309 x[4,9] + 0.0294999703070254 x[4,10]
   + 0.0628600273175367 x[4,11] + 0.0998426272343963 x[4,12]
   + 0.1434467604964665 x[4,13] >= 0
 findWorstP[4,2]: z - 0.0445394619632995 cashProportion[2]
   + 0.0445394619632995 cashProportion[4] - 0.0948096680325435 x[2,1]
   - 0.0906674980699567 x[2,2] - 0.0106003919472653 x[2,3]
   - 0.1122988300967991 x[2,4] - 0.0553625512203813 x[2,5]
   - 0.1313914127917335 x[2,6] - 0.0752865372052972 x[2,7]
   - 0.0330482807767682 x[2,8] - 0.0163459825405309 x[2,9]
   - 0.0294999703070254 x[2,10] - 0.0628600273175367 x[2,11]
   - 0.0998426272343963 x[2,12] - 0.1434467604964665 x[2,13]
   + 0.0948096680325435 x[4,1] + 0.0906674980699567 x[4,2]
   + 0.0106003919472653 x[4,3] + 0.1122988300967991 x[4,4]
   + 0.0553625512203813 x[4,5] + 0.1313914127917335 x[4,6]
   + 0.0752865372052972 x[4,7] + 0.0330482807767682 x[4,8]
   + 0.0163459825405309 x[4,9] + 0.0294999703070254 x[4,10]
   + 0.0628600273175367 x[4,11] + 0.0998426272343963 x[4,12]
   + 0.1434467604964665 x[4,13] >= 0
 findWorstP[4,3]: z - 0.0445394619632995 cashProportion[3]
   + 0.0445394619632995 cashProportion[4] - 0.0948096680325435 x[3,1]
   - 0.0906674980699567 x[3,2] - 0.0106003919472653 x[3,3]
   - 0.1122988300967991 x[3,4] - 0.0553625512203813 x[3,5]
   - 0.1313914127917335 x[3,6] - 0.0752865372052972 x[3,7]
   - 0.0330482807767682 x[3,8] - 0.0163459825405309 x[3,9]
   - 0.0294999703070254 x[3,10] - 0.0628600273175367 x[3,11]
   - 0.0998426272343963 x[3,12] - 0.1434467604964665 x[3,13]
   + 0.0948096680325435 x[4,1] + 0.0906674980699567 x[4,2]
   + 0.0106003919472653 x[4,3] + 0.1122988300967991 x[4,4]
   + 0.0553625512203813 x[4,5] + 0.1313914127917335 x[4,6]
   + 0.0752865372052972 x[4,7] + 0.0330482807767682 x[4,8]
   + 0.0163459825405309 x[4,9] + 0.0294999703070254 x[4,10]
   + 0.0628600273175367 x[4,11] + 0.0998426272343963 x[4,12]
   + 0.1434467604964665 x[4,13] >= 0
Bounds
 z <= 1
 -infinity <= cashProportion[1] <= 1
 -infinity <= cashProportion[2] <= 1
 -infinity <= cashProportion[3] <= 1
 -infinity <= cashProportion[4] <= 1
Binaries
 x[1,1] x[1,2] x[1,3] x[1,4] x[1,5] x[1,6] x[1,7] x[1,8] x[1,9] x[1,10]
 x[1,11] x[1,12] x[1,13] x[2,1] x[2,2] x[2,3] x[2,4] x[2,5] x[2,6] x[2,7]
 x[2,8] x[2,9] x[2,10] x[2,11] x[2,12] x[2,13] x[3,1] x[3,2] x[3,3] x[3,4]
 x[3,5] x[3,6] x[3,7] x[3,8] x[3,9] x[3,10] x[3,11] x[3,12] x[3,13] x[4,1]
 x[4,2] x[4,3] x[4,4] x[4,5] x[4,6] x[4,7] x[4,8] x[4,9] x[4,10] x[4,11]
 x[4,12] x[4,13]
End
