data/mps_files/q3/73_5.mps
NAME foo
ROWS
 N  OBJ
 E  allocateEach[1]
 E  allocateEach[2]
 E  allocateEach[3]
 E  allocateEach[4]
 E  allocateEach[5]
 E  allocateEach[6]
 E  allocateEach[7]
 E  allocateEach[8]
 E  allocateEach[9]
 E  allocateEach[10]
 E  allocateEach[11]
 E  allocateEach[12]
 E  allocateEach[13]
 E  allocateAllCash
 G  findWorstP[1,2]
 G  findWorstP[1,3]
 G  findWorstP[1,4]
 G  findWorstP[2,1]
 G  findWorstP[2,3]
 G  findWorstP[2,4]
 G  findWorstP[3,1]
 G  findWorstP[3,2]
 G  findWorstP[3,4]
 G  findWorstP[4,1]
 G  findWorstP[4,2]
 G  findWorstP[4,3]
COLUMNS
    z         OBJ       1
    z         findWorstP[1,2]  1
    z         findWorstP[1,3]  1
    z         findWorstP[1,4]  1
    z         findWorstP[2,1]  1
    z         findWorstP[2,3]  1
    z         findWorstP[2,4]  1
    z         findWorstP[3,1]  1
    z         findWorstP[3,2]  1
    z         findWorstP[3,4]  1
    z         findWorstP[4,1]  1
    z         findWorstP[4,2]  1
    z         findWorstP[4,3]  1
    cashProportion[1]  allocateAllCash  1
    cashProportion[1]  findWorstP[1,2]  4.3640807063991968e-02
    cashProportion[1]  findWorstP[1,3]  4.3640807063991968e-02
    cashProportion[1]  findWorstP[1,4]  4.3640807063991968e-02
    cashProportion[1]  findWorstP[2,1]  -5.5060015416804310e-02
    cashProportion[1]  findWorstP[3,1]  -4.8376953219486242e-02
    cashProportion[1]  findWorstP[4,1]  -4.4539461963299477e-02
    cashProportion[2]  allocateAllCash  1
    cashProportion[2]  findWorstP[1,2]  -4.3640807063991968e-02
    cashProportion[2]  findWorstP[2,1]  5.5060015416804310e-02
    cashProportion[2]  findWorstP[2,3]  5.5060015416804310e-02
    cashProportion[2]  findWorstP[2,4]  5.5060015416804310e-02
    cashProportion[2]  findWorstP[3,2]  -4.8376953219486242e-02
    cashProportion[2]  findWorstP[4,2]  -4.4539461963299477e-02
    cashProportion[3]  allocateAllCash  1
    cashProportion[3]  findWorstP[1,3]  -4.3640807063991968e-02
    cashProportion[3]  findWorstP[2,3]  -5.5060015416804310e-02
    cashProportion[3]  findWorstP[3,1]  4.8376953219486242e-02
    cashProportion[3]  findWorstP[3,2]  4.8376953219486242e-02
    cashProportion[3]  findWorstP[3,4]  4.8376953219486242e-02
    cashProportion[3]  findWorstP[4,3]  -4.4539461963299477e-02
    cashProportion[4]  allocateAllCash  1
    cashProportion[4]  findWorstP[1,4]  -4.3640807063991968e-02
    cashProportion[4]  findWorstP[2,4]  -5.5060015416804310e-02
    cashProportion[4]  findWorstP[3,4]  -4.8376953219486242e-02
    cashProportion[4]  findWorstP[4,1]  4.4539461963299477e-02
    cashProportion[4]  findWorstP[4,2]  4.4539461963299477e-02
    cashProportion[4]  findWorstP[4,3]  4.4539461963299477e-02
    MARKER    'MARKER'                 'INTORG'
    x[1,1]    allocateEach[1]  1
    x[1,1]    findWorstP[1,2]  1.7456322825596788e-03
    x[1,1]    findWorstP[1,3]  1.7456322825596788e-03
    x[1,1]    findWorstP[1,4]  1.7456322825596788e-03
    x[1,1]    findWorstP[2,1]  -1.2410527474947693e-01
    x[1,1]    findWorstP[3,1]  -6.2470772257429905e-02
    x[1,1]    findWorstP[4,1]  -9.4809668032543482e-02
    x[1,2]    allocateEach[2]  1
    x[1,2]    findWorstP[1,2]  0.0727637723113626
    x[1,2]    findWorstP[1,3]  0.0727637723113626
    x[1,2]    findWorstP[1,4]  0.0727637723113626
    x[1,2]    findWorstP[2,1]  -1.6885071394486656e-03
    x[1,2]    findWorstP[3,1]  -1.2197442471739797e-01
    x[1,2]    findWorstP[4,1]  -9.0667498069956651e-02
    x[1,3]    allocateEach[3]  1
    x[1,3]    findWorstP[1,2]  0.0576204122601574
    x[1,3]    findWorstP[1,3]  0.0576204122601574
    x[1,3]    findWorstP[1,4]  0.0576204122601574
    x[1,3]    findWorstP[2,1]  -8.1837536247843484e-02
    x[1,3]    findWorstP[3,1]  -3.1316014384080763e-02
    x[1,3]    findWorstP[4,1]  -1.0600391947265277e-02
    x[1,4]    allocateEach[4]  1
    x[1,4]    findWorstP[1,2]  1.0593078567999650e-01
    x[1,4]    findWorstP[1,3]  1.0593078567999650e-01
    x[1,4]    findWorstP[1,4]  1.0593078567999650e-01
    x[1,4]    findWorstP[2,1]  -3.1567742172301134e-02
    x[1,4]    findWorstP[3,1]  -6.1599987099479146e-03
    x[1,4]    findWorstP[4,1]  -1.1229883009679908e-01
    x[1,5]    allocateEach[5]  1
    x[1,5]    findWorstP[1,2]  6.6552230772587748e-02
    x[1,5]    findWorstP[1,3]  6.6552230772587748e-02
    x[1,5]    findWorstP[1,4]  6.6552230772587748e-02
    x[1,5]    findWorstP[2,1]  -1.3976067246632162e-01
    x[1,5]    findWorstP[3,1]  -1.3766468321158468e-01
    x[1,5]    findWorstP[4,1]  -5.5362551220381258e-02
    x[1,6]    allocateEach[6]  1
    x[1,6]    findWorstP[1,2]  1.4305456555576568e-01
    x[1,6]    findWorstP[1,3]  1.4305456555576568e-01
    x[1,6]    findWorstP[1,4]  1.4305456555576568e-01
    x[1,6]    findWorstP[2,1]  -2.1877179458943581e-02
    x[1,6]    findWorstP[3,1]  -8.9819876477512783e-03
    x[1,6]    findWorstP[4,1]  -1.3139141279173347e-01
    x[1,7]    allocateEach[7]  1
    x[1,7]    findWorstP[1,2]  1.1035305412914770e-01
    x[1,7]    findWorstP[1,3]  1.1035305412914770e-01
    x[1,7]    findWorstP[1,4]  1.1035305412914770e-01
    x[1,7]    findWorstP[2,1]  -1.0149396175164263e-01
    x[1,7]    findWorstP[3,1]  -6.5357263799525916e-02
    x[1,7]    findWorstP[4,1]  -7.5286537205297224e-02
    x[1,8]    allocateEach[8]  1
    x[1,8]    findWorstP[1,2]  2.7057300379675019e-03
    x[1,8]    findWorstP[1,3]  2.7057300379675019e-03
    x[1,8]    findWorstP[1,4]  2.7057300379675019e-03
    x[1,8]    findWorstP[2,1]  -1.1525896560584370e-02
    x[1,8]    findWorstP[3,1]  -1.5367745472723463e-02
    x[1,8]    findWorstP[4,1]  -3.3048280776768212e-02
    x[1,9]    allocateEach[9]  1
    x[1,9]    findWorstP[1,2]  2.4438851955835502e-02
    x[1,9]    findWorstP[1,3]  2.4438851955835502e-02
    x[1,9]    findWorstP[1,4]  2.4438851955835502e-02
    x[1,9]    findWorstP[2,1]  -1.2627096868920454e-01
    x[1,9]    findWorstP[3,1]  -1.6080499250157226e-01
    x[1,9]    findWorstP[4,1]  -1.6345982540530910e-02
    x[1,10]   allocateEach[10]  1
    x[1,10]   findWorstP[1,2]  9.6489824418486247e-02
    x[1,10]   findWorstP[1,3]  9.6489824418486247e-02
    x[1,10]   findWorstP[1,4]  9.6489824418486247e-02
    x[1,10]   findWorstP[2,1]  -1.1870939323863011e-01
    x[1,10]   findWorstP[3,1]  -1.5396771644655155e-01
    x[1,10]   findWorstP[4,1]  -2.9499970307025353e-02
    x[1,11]   allocateEach[11]  1
    x[1,11]   findWorstP[1,2]  5.2354421541102363e-02
    x[1,11]   findWorstP[1,3]  5.2354421541102363e-02
    x[1,11]   findWorstP[1,4]  5.2354421541102363e-02
    x[1,11]   findWorstP[2,1]  -5.3775281723745542e-03
    x[1,11]   findWorstP[3,1]  -8.1418412268395343e-02
    x[1,11]   findWorstP[4,1]  -6.2860027317536663e-02
    x[1,12]   allocateEach[12]  1
    x[1,12]   findWorstP[1,2]  1.3298808605967152e-01
    x[1,12]   findWorstP[1,3]  1.3298808605967152e-01
    x[1,12]   findWorstP[1,4]  1.3298808605967152e-01
    x[1,12]   findWorstP[2,1]  -7.0568586425870869e-02
    x[1,12]   findWorstP[3,1]  -2.4317481818328417e-02
    x[1,12]   findWorstP[4,1]  -9.9842627234396339e-02
    x[1,13]   allocateEach[13]  1
    x[1,13]   findWorstP[1,2]  8.9361825931367544e-02
    x[1,13]   findWorstP[1,3]  8.9361825931367544e-02
    x[1,13]   findWorstP[1,4]  8.9361825931367544e-02
    x[1,13]   findWorstP[2,1]  -1.1015673751055316e-01
    x[1,13]   findWorstP[3,1]  -0.0818215535452244
    x[1,13]   findWorstP[4,1]  -1.4344676049646651e-01
    x[2,1]    allocateEach[1]  1
    x[2,1]    findWorstP[1,2]  -1.7456322825596788e-03
    x[2,1]    findWorstP[2,1]  1.2410527474947693e-01
    x[2,1]    findWorstP[2,3]  1.2410527474947693e-01
    x[2,1]    findWorstP[2,4]  1.2410527474947693e-01
    x[2,1]    findWorstP[3,2]  -6.2470772257429905e-02
    x[2,1]    findWorstP[4,2]  -9.4809668032543482e-02
    x[2,2]    allocateEach[2]  1
    x[2,2]    findWorstP[1,2]  -0.0727637723113626
    x[2,2]    findWorstP[2,1]  1.6885071394486656e-03
    x[2,2]    findWorstP[2,3]  1.6885071394486656e-03
    x[2,2]    findWorstP[2,4]  1.6885071394486656e-03
    x[2,2]    findWorstP[3,2]  -1.2197442471739797e-01
    x[2,2]    findWorstP[4,2]  -9.0667498069956651e-02
    x[2,3]    allocateEach[3]  1
    x[2,3]    findWorstP[1,2]  -0.0576204122601574
    x[2,3]    findWorstP[2,1]  8.1837536247843484e-02
    x[2,3]    findWorstP[2,3]  8.1837536247843484e-02
    x[2,3]    findWorstP[2,4]  8.1837536247843484e-02
    x[2,3]    findWorstP[3,2]  -3.1316014384080763e-02
    x[2,3]    findWorstP[4,2]  -1.0600391947265277e-02
    x[2,4]    allocateEach[4]  1
    x[2,4]    findWorstP[1,2]  -1.0593078567999650e-01
    x[2,4]    findWorstP[2,1]  3.1567742172301134e-02
    x[2,4]    findWorstP[2,3]  3.1567742172301134e-02
    x[2,4]    findWorstP[2,4]  3.1567742172301134e-02
    x[2,4]    findWorstP[3,2]  -6.1599987099479146e-03
    x[2,4]    findWorstP[4,2]  -1.1229883009679908e-01
    x[2,5]    allocateEach[5]  1
    x[2,5]    findWorstP[1,2]  -6.6552230772587748e-02
    x[2,5]    findWorstP[2,1]  1.3976067246632162e-01
    x[2,5]    findWorstP[2,3]  1.3976067246632162e-01
    x[2,5]    findWorstP[2,4]  1.3976067246632162e-01
    x[2,5]    findWorstP[3,2]  -1.3766468321158468e-01
    x[2,5]    findWorstP[4,2]  -5.5362551220381258e-02
    x[2,6]    allocateEach[6]  1
    x[2,6]    findWorstP[1,2]  -1.4305456555576568e-01
    x[2,6]    findWorstP[2,1]  2.1877179458943581e-02
    x[2,6]    findWorstP[2,3]  2.1877179458943581e-02
    x[2,6]    findWorstP[2,4]  2.1877179458943581e-02
    x[2,6]    findWorstP[3,2]  -8.9819876477512783e-03
    x[2,6]    findWorstP[4,2]  -1.3139141279173347e-01
    x[2,7]    allocateEach[7]  1
    x[2,7]    findWorstP[1,2]  -1.1035305412914770e-01
    x[2,7]    findWorstP[2,1]  1.0149396175164263e-01
    x[2,7]    findWorstP[2,3]  1.0149396175164263e-01
    x[2,7]    findWorstP[2,4]  1.0149396175164263e-01
    x[2,7]    findWorstP[3,2]  -6.5357263799525916e-02
    x[2,7]    findWorstP[4,2]  -7.5286537205297224e-02
    x[2,8]    allocateEach[8]  1
    x[2,8]    findWorstP[1,2]  -2.7057300379675019e-03
    x[2,8]    findWorstP[2,1]  1.1525896560584370e-02
    x[2,8]    findWorstP[2,3]  1.1525896560584370e-02
    x[2,8]    findWorstP[2,4]  1.1525896560584370e-02
    x[2,8]    findWorstP[3,2]  -1.5367745472723463e-02
    x[2,8]    findWorstP[4,2]  -3.3048280776768212e-02
    x[2,9]    allocateEach[9]  1
    x[2,9]    findWorstP[1,2]  -2.4438851955835502e-02
    x[2,9]    findWorstP[2,1]  1.2627096868920454e-01
    x[2,9]    findWorstP[2,3]  1.2627096868920454e-01
    x[2,9]    findWorstP[2,4]  1.2627096868920454e-01
    x[2,9]    findWorstP[3,2]  -1.6080499250157226e-01
    x[2,9]    findWorstP[4,2]  -1.6345982540530910e-02
    x[2,10]   allocateEach[10]  1
    x[2,10]   findWorstP[1,2]  -9.6489824418486247e-02
    x[2,10]   findWorstP[2,1]  1.1870939323863011e-01
    x[2,10]   findWorstP[2,3]  1.1870939323863011e-01
    x[2,10]   findWorstP[2,4]  1.1870939323863011e-01
    x[2,10]   findWorstP[3,2]  -1.5396771644655155e-01
    x[2,10]   findWorstP[4,2]  -2.9499970307025353e-02
    x[2,11]   allocateEach[11]  1
    x[2,11]   findWorstP[1,2]  -5.2354421541102363e-02
    x[2,11]   findWorstP[2,1]  5.3775281723745542e-03
    x[2,11]   findWorstP[2,3]  5.3775281723745542e-03
    x[2,11]   findWorstP[2,4]  5.3775281723745542e-03
    x[2,11]   findWorstP[3,2]  -8.1418412268395343e-02
    x[2,11]   findWorstP[4,2]  -6.2860027317536663e-02
    x[2,12]   allocateEach[12]  1
    x[2,12]   findWorstP[1,2]  -1.3298808605967152e-01
    x[2,12]   findWorstP[2,1]  7.0568586425870869e-02
    x[2,12]   findWorstP[2,3]  7.0568586425870869e-02
    x[2,12]   findWorstP[2,4]  7.0568586425870869e-02
    x[2,12]   findWorstP[3,2]  -2.4317481818328417e-02
    x[2,12]   findWorstP[4,2]  -9.9842627234396339e-02
    x[2,13]   allocateEach[13]  1
    x[2,13]   findWorstP[1,2]  -8.9361825931367544e-02
    x[2,13]   findWorstP[2,1]  1.1015673751055316e-01
    x[2,13]   findWorstP[2,3]  1.1015673751055316e-01
    x[2,13]   findWorstP[2,4]  1.1015673751055316e-01
    x[2,13]   findWorstP[3,2]  -0.0818215535452244
    x[2,13]   findWorstP[4,2]  -1.4344676049646651e-01
    x[3,1]    allocateEach[1]  1
    x[3,1]    findWorstP[1,3]  -1.7456322825596788e-03
    x[3,1]    findWorstP[2,3]  -1.2410527474947693e-01
    x[3,1]    findWorstP[3,1]  6.2470772257429905e-02
    x[3,1]    findWorstP[3,2]  6.2470772257429905e-02
    x[3,1]    findWorstP[3,4]  6.2470772257429905e-02
    x[3,1]    findWorstP[4,3]  -9.4809668032543482e-02
    x[3,2]    allocateEach[2]  1
    x[3,2]    findWorstP[1,3]  -0.0727637723113626
    x[3,2]    findWorstP[2,3]  -1.6885071394486656e-03
    x[3,2]    findWorstP[3,1]  1.2197442471739797e-01
    x[3,2]    findWorstP[3,2]  1.2197442471739797e-01
    x[3,2]    findWorstP[3,4]  1.2197442471739797e-01
    x[3,2]    findWorstP[4,3]  -9.0667498069956651e-02
    x[3,3]    allocateEach[3]  1
    x[3,3]    findWorstP[1,3]  -0.0576204122601574
    x[3,3]    findWorstP[2,3]  -8.1837536247843484e-02
    x[3,3]    findWorstP[3,1]  3.1316014384080763e-02
    x[3,3]    findWorstP[3,2]  3.1316014384080763e-02
    x[3,3]    findWorstP[3,4]  3.1316014384080763e-02
    x[3,3]    findWorstP[4,3]  -1.0600391947265277e-02
    x[3,4]    allocateEach[4]  1
    x[3,4]    findWorstP[1,3]  -1.0593078567999650e-01
    x[3,4]    findWorstP[2,3]  -3.1567742172301134e-02
    x[3,4]    findWorstP[3,1]  6.1599987099479146e-03
    x[3,4]    findWorstP[3,2]  6.1599987099479146e-03
    x[3,4]    findWorstP[3,4]  6.1599987099479146e-03
    x[3,4]    findWorstP[4,3]  -1.1229883009679908e-01
    x[3,5]    allocateEach[5]  1
    x[3,5]    findWorstP[1,3]  -6.6552230772587748e-02
    x[3,5]    findWorstP[2,3]  -1.3976067246632162e-01
    x[3,5]    findWorstP[3,1]  1.3766468321158468e-01
    x[3,5]    findWorstP[3,2]  1.3766468321158468e-01
    x[3,5]    findWorstP[3,4]  1.3766468321158468e-01
    x[3,5]    findWorstP[4,3]  -5.5362551220381258e-02
    x[3,6]    allocateEach[6]  1
    x[3,6]    findWorstP[1,3]  -1.4305456555576568e-01
    x[3,6]    findWorstP[2,3]  -2.1877179458943581e-02
    x[3,6]    findWorstP[3,1]  8.9819876477512783e-03
    x[3,6]    findWorstP[3,2]  8.9819876477512783e-03
    x[3,6]    findWorstP[3,4]  8.9819876477512783e-03
    x[3,6]    findWorstP[4,3]  -1.3139141279173347e-01
    x[3,7]    allocateEach[7]  1
    x[3,7]    findWorstP[1,3]  -1.1035305412914770e-01
    x[3,7]    findWorstP[2,3]  -1.0149396175164263e-01
    x[3,7]    findWorstP[3,1]  6.5357263799525916e-02
    x[3,7]    findWorstP[3,2]  6.5357263799525916e-02
    x[3,7]    findWorstP[3,4]  6.5357263799525916e-02
    x[3,7]    findWorstP[4,3]  -7.5286537205297224e-02
    x[3,8]    allocateEach[8]  1
    x[3,8]    findWorstP[1,3]  -2.7057300379675019e-03
    x[3,8]    findWorstP[2,3]  -1.1525896560584370e-02
    x[3,8]    findWorstP[3,1]  1.5367745472723463e-02
    x[3,8]    findWorstP[3,2]  1.5367745472723463e-02
    x[3,8]    findWorstP[3,4]  1.5367745472723463e-02
    x[3,8]    findWorstP[4,3]  -3.3048280776768212e-02
    x[3,9]    allocateEach[9]  1
    x[3,9]    findWorstP[1,3]  -2.4438851955835502e-02
    x[3,9]    findWorstP[2,3]  -1.2627096868920454e-01
    x[3,9]    findWorstP[3,1]  1.6080499250157226e-01
    x[3,9]    findWorstP[3,2]  1.6080499250157226e-01
    x[3,9]    findWorstP[3,4]  1.6080499250157226e-01
    x[3,9]    findWorstP[4,3]  -1.6345982540530910e-02
    x[3,10]   allocateEach[10]  1
    x[3,10]   findWorstP[1,3]  -9.6489824418486247e-02
    x[3,10]   findWorstP[2,3]  -1.1870939323863011e-01
    x[3,10]   findWorstP[3,1]  1.5396771644655155e-01
    x[3,10]   findWorstP[3,2]  1.5396771644655155e-01
    x[3,10]   findWorstP[3,4]  1.5396771644655155e-01
    x[3,10]   findWorstP[4,3]  -2.9499970307025353e-02
    x[3,11]   allocateEach[11]  1
    x[3,11]   findWorstP[1,3]  -5.2354421541102363e-02
    x[3,11]   findWorstP[2,3]  -5.3775281723745542e-03
    x[3,11]   findWorstP[3,1]  8.1418412268395343e-02
    x[3,11]   findWorstP[3,2]  8.1418412268395343e-02
    x[3,11]   findWorstP[3,4]  8.1418412268395343e-02
    x[3,11]   findWorstP[4,3]  -6.2860027317536663e-02
    x[3,12]   allocateEach[12]  1
    x[3,12]   findWorstP[1,3]  -1.3298808605967152e-01
    x[3,12]   findWorstP[2,3]  -7.0568586425870869e-02
    x[3,12]   findWorstP[3,1]  2.4317481818328417e-02
    x[3,12]   findWorstP[3,2]  2.4317481818328417e-02
    x[3,12]   findWorstP[3,4]  2.4317481818328417e-02
    x[3,12]   findWorstP[4,3]  -9.9842627234396339e-02
    x[3,13]   allocateEach[13]  1
    x[3,13]   findWorstP[1,3]  -8.9361825931367544e-02
    x[3,13]   findWorstP[2,3]  -1.1015673751055316e-01
    x[3,13]   findWorstP[3,1]  0.0818215535452244
    x[3,13]   findWorstP[3,2]  0.0818215535452244
    x[3,13]   findWorstP[3,4]  0.0818215535452244
    x[3,13]   findWorstP[4,3]  -1.4344676049646651e-01
    x[4,1]    allocateEach[1]  1
    x[4,1]    findWorstP[1,4]  -1.7456322825596788e-03
    x[4,1]    findWorstP[2,4]  -1.2410527474947693e-01
    x[4,1]    findWorstP[3,4]  -6.2470772257429905e-02
    x[4,1]    findWorstP[4,1]  9.4809668032543482e-02
    x[4,1]    findWorstP[4,2]  9.4809668032543482e-02
    x[4,1]    findWorstP[4,3]  9.4809668032543482e-02
    x[4,2]    allocateEach[2]  1
    x[4,2]    findWorstP[1,4]  -0.0727637723113626
    x[4,2]    findWorstP[2,4]  -1.6885071394486656e-03
    x[4,2]    findWorstP[3,4]  -1.2197442471739797e-01
    x[4,2]    findWorstP[4,1]  9.0667498069956651e-02
    x[4,2]    findWorstP[4,2]  9.0667498069956651e-02
    x[4,2]    findWorstP[4,3]  9.0667498069956651e-02
    x[4,3]    allocateEach[3]  1
    x[4,3]    findWorstP[1,4]  -0.0576204122601574
    x[4,3]    findWorstP[2,4]  -8.1837536247843484e-02
    x[4,3]    findWorstP[3,4]  -3.1316014384080763e-02
    x[4,3]    findWorstP[4,1]  1.0600391947265277e-02
    x[4,3]    findWorstP[4,2]  1.0600391947265277e-02
    x[4,3]    findWorstP[4,3]  1.0600391947265277e-02
    x[4,4]    allocateEach[4]  1
    x[4,4]    findWorstP[1,4]  -1.0593078567999650e-01
    x[4,4]    findWorstP[2,4]  -3.1567742172301134e-02
    x[4,4]    findWorstP[3,4]  -6.1599987099479146e-03
    x[4,4]    findWorstP[4,1]  1.1229883009679908e-01
    x[4,4]    findWorstP[4,2]  1.1229883009679908e-01
    x[4,4]    findWorstP[4,3]  1.1229883009679908e-01
    x[4,5]    allocateEach[5]  1
    x[4,5]    findWorstP[1,4]  -6.6552230772587748e-02
    x[4,5]    findWorstP[2,4]  -1.3976067246632162e-01
    x[4,5]    findWorstP[3,4]  -1.3766468321158468e-01
    x[4,5]    findWorstP[4,1]  5.5362551220381258e-02
    x[4,5]    findWorstP[4,2]  5.5362551220381258e-02
    x[4,5]    findWorstP[4,3]  5.5362551220381258e-02
    x[4,6]    allocateEach[6]  1
    x[4,6]    findWorstP[1,4]  -1.4305456555576568e-01
    x[4,6]    findWorstP[2,4]  -2.1877179458943581e-02
    x[4,6]    findWorstP[3,4]  -8.9819876477512783e-03
    x[4,6]    findWorstP[4,1]  1.3139141279173347e-01
    x[4,6]    findWorstP[4,2]  1.3139141279173347e-01
    x[4,6]    findWorstP[4,3]  1.3139141279173347e-01
    x[4,7]    allocateEach[7]  1
    x[4,7]    findWorstP[1,4]  -1.1035305412914770e-01
    x[4,7]    findWorstP[2,4]  -1.0149396175164263e-01
    x[4,7]    findWorstP[3,4]  -6.5357263799525916e-02
    x[4,7]    findWorstP[4,1]  7.5286537205297224e-02
    x[4,7]    findWorstP[4,2]  7.5286537205297224e-02
    x[4,7]    findWorstP[4,3]  7.5286537205297224e-02
    x[4,8]    allocateEach[8]  1
    x[4,8]    findWorstP[1,4]  -2.7057300379675019e-03
    x[4,8]    findWorstP[2,4]  -1.1525896560584370e-02
    x[4,8]    findWorstP[3,4]  -1.5367745472723463e-02
    x[4,8]    findWorstP[4,1]  3.3048280776768212e-02
    x[4,8]    findWorstP[4,2]  3.3048280776768212e-02
    x[4,8]    findWorstP[4,3]  3.3048280776768212e-02
    x[4,9]    allocateEach[9]  1
    x[4,9]    findWorstP[1,4]  -2.4438851955835502e-02
    x[4,9]    findWorstP[2,4]  -1.2627096868920454e-01
    x[4,9]    findWorstP[3,4]  -1.6080499250157226e-01
    x[4,9]    findWorstP[4,1]  1.6345982540530910e-02
    x[4,9]    findWorstP[4,2]  1.6345982540530910e-02
    x[4,9]    findWorstP[4,3]  1.6345982540530910e-02
    x[4,10]   allocateEach[10]  1
    x[4,10]   findWorstP[1,4]  -9.6489824418486247e-02
    x[4,10]   findWorstP[2,4]  -1.1870939323863011e-01
    x[4,10]   findWorstP[3,4]  -1.5396771644655155e-01
    x[4,10]   findWorstP[4,1]  2.9499970307025353e-02
    x[4,10]   findWorstP[4,2]  2.9499970307025353e-02
    x[4,10]   findWorstP[4,3]  2.9499970307025353e-02
    x[4,11]   allocateEach[11]  1
    x[4,11]   findWorstP[1,4]  -5.2354421541102363e-02
    x[4,11]   findWorstP[2,4]  -5.3775281723745542e-03
    x[4,11]   findWorstP[3,4]  -8.1418412268395343e-02
    x[4,11]   findWorstP[4,1]  6.2860027317536663e-02
    x[4,11]   findWorstP[4,2]  6.2860027317536663e-02
    x[4,11]   findWorstP[4,3]  6.2860027317536663e-02
    x[4,12]   allocateEach[12]  1
    x[4,12]   findWorstP[1,4]  -1.3298808605967152e-01
    x[4,12]   findWorstP[2,4]  -7.0568586425870869e-02
    x[4,12]   findWorstP[3,4]  -2.4317481818328417e-02
    x[4,12]   findWorstP[4,1]  9.9842627234396339e-02
    x[4,12]   findWorstP[4,2]  9.9842627234396339e-02
    x[4,12]   findWorstP[4,3]  9.9842627234396339e-02
    x[4,13]   allocateEach[13]  1
    x[4,13]   findWorstP[1,4]  -8.9361825931367544e-02
    x[4,13]   findWorstP[2,4]  -1.1015673751055316e-01
    x[4,13]   findWorstP[3,4]  -0.0818215535452244
    x[4,13]   findWorstP[4,1]  1.4344676049646651e-01
    x[4,13]   findWorstP[4,2]  1.4344676049646651e-01
    x[4,13]   findWorstP[4,3]  1.4344676049646651e-01
    MARKER    'MARKER'                 'INTEND'
RHS
    RHS1      allocateEach[1]  1
    RHS1      allocateEach[2]  1
    RHS1      allocateEach[3]  1
    RHS1      allocateEach[4]  1
    RHS1      allocateEach[5]  1
    RHS1      allocateEach[6]  1
    RHS1      allocateEach[7]  1
    RHS1      allocateEach[8]  1
    RHS1      allocateEach[9]  1
    RHS1      allocateEach[10]  1
    RHS1      allocateEach[11]  1
    RHS1      allocateEach[12]  1
    RHS1      allocateEach[13]  1
    RHS1      allocateAllCash  1
BOUNDS
 UP BND1      z         1
 MI BND1      cashProportion[1]
 UP BND1      cashProportion[1]  1
 MI BND1      cashProportion[2]
 UP BND1      cashProportion[2]  1
 MI BND1      cashProportion[3]
 UP BND1      cashProportion[3]  1
 MI BND1      cashProportion[4]
 UP BND1      cashProportion[4]  1
 BV BND1      x[1,1]  
 BV BND1      x[1,2]  
 BV BND1      x[1,3]  
 BV BND1      x[1,4]  
 BV BND1      x[1,5]  
 BV BND1      x[1,6]  
 BV BND1      x[1,7]  
 BV BND1      x[1,8]  
 BV BND1      x[1,9]  
 BV BND1      x[1,10] 
 BV BND1      x[1,11] 
 BV BND1      x[1,12] 
 BV BND1      x[1,13] 
 BV BND1      x[2,1]  
 BV BND1      x[2,2]  
 BV BND1      x[2,3]  
 BV BND1      x[2,4]  
 BV BND1      x[2,5]  
 BV BND1      x[2,6]  
 BV BND1      x[2,7]  
 BV BND1      x[2,8]  
 BV BND1      x[2,9]  
 BV BND1      x[2,10] 
 BV BND1      x[2,11] 
 BV BND1      x[2,12] 
 BV BND1      x[2,13] 
 BV BND1      x[3,1]  
 BV BND1      x[3,2]  
 BV BND1      x[3,3]  
 BV BND1      x[3,4]  
 BV BND1      x[3,5]  
 BV BND1      x[3,6]  
 BV BND1      x[3,7]  
 BV BND1      x[3,8]  
 BV BND1      x[3,9]  
 BV BND1      x[3,10] 
 BV BND1      x[3,11] 
 BV BND1      x[3,12] 
 BV BND1      x[3,13] 
 BV BND1      x[4,1]  
 BV BND1      x[4,2]  
 BV BND1      x[4,3]  
 BV BND1      x[4,4]  
 BV BND1      x[4,5]  
 BV BND1      x[4,6]  
 BV BND1      x[4,7]  
 BV BND1      x[4,8]  
 BV BND1      x[4,9]  
 BV BND1      x[4,10] 
 BV BND1      x[4,11] 
 BV BND1      x[4,12] 
 BV BND1      x[4,13] 
ENDATA
